(declare-fun main@%_2439_0 () (_ BitVec 24))
(declare-fun main@%_833_0 () (_ BitVec 24))
(declare-fun main@%_697_0 () (_ BitVec 24))
(declare-fun main@%_1101_0 () (_ BitVec 24))
(declare-fun main@%_578_0 () (_ BitVec 24))
(declare-fun main@%_699_0 () (_ BitVec 24))
(declare-fun main@%_965_0 () (_ BitVec 24))
(declare-fun main@%_563_0 () (_ BitVec 24))
(declare-fun main@%_967_0 () (_ BitVec 24))
(declare-fun main@%_444_0 () (_ BitVec 24))
(declare-fun main@%_2454_0 () (_ BitVec 24))
(declare-fun main@%_565_0 () (_ BitVec 24))
(declare-fun main@%_831_0 () (_ BitVec 24))
(declare-fun main@%_429_0 () (_ BitVec 24))
(declare-fun main@%_41_0 () (_ BitVec 24))
(declare-fun main@%_26_0 () (_ BitVec 24))
(declare-fun main@%_2_0 () Bool)
(declare-fun main@%_176_0 () (_ BitVec 24))
(declare-fun main@%_161_0 () (_ BitVec 24))
(declare-fun main@%_2441_0 () (_ BitVec 24))
(declare-fun main@%_980_0 () (_ BitVec 24))
(declare-fun main@%_1771_0 () (_ BitVec 24))
(declare-fun main@%_163_0 () (_ BitVec 24))
(declare-fun main@%_2052_0 () (_ BitVec 24))
(declare-fun sea.sp0_0 () (_ BitVec 64))
(declare-fun main@%_2039_0 () (_ BitVec 24))
(declare-fun main@%_1918_0 () (_ BitVec 24))
(declare-fun main@%_28_0 () (_ BitVec 24))
(declare-fun main@%_1784_0 () (_ BitVec 24))
(declare-fun main@%_310_0 () (_ BitVec 24))
(declare-fun main@%_295_0 () (_ BitVec 24))
(declare-fun main@%_1114_0 () (_ BitVec 24))
(declare-fun main@%_712_0 () (_ BitVec 24))
(declare-fun main@%_1235_0 () (_ BitVec 24))
(declare-fun main@%_2320_0 () (_ BitVec 24))
(declare-fun main@%_431_0 () (_ BitVec 24))
(declare-fun main@%_297_0 () (_ BitVec 24))
(declare-fun main@%_2186_0 () (_ BitVec 24))
(declare-fun main@%_1099_0 () (_ BitVec 24))
(declare-fun main@%_1248_0 () (_ BitVec 24))
(declare-fun main@%_1233_0 () (_ BitVec 24))
(declare-fun main@%_1369_0 () (_ BitVec 24))
(declare-fun main@%_1382_0 () (_ BitVec 24))
(declare-fun main@%_1367_0 () (_ BitVec 24))
(declare-fun main@%_1503_0 () (_ BitVec 24))
(declare-fun main@%_1516_0 () (_ BitVec 24))
(declare-fun main@%_1501_0 () (_ BitVec 24))
(declare-fun main@%_1637_0 () (_ BitVec 24))
(declare-fun main@%_1650_0 () (_ BitVec 24))
(declare-fun main@%_1635_0 () (_ BitVec 24))
(declare-fun main@%_1769_0 () (_ BitVec 24))
(declare-fun main@%_1_0 () Bool)
(declare-fun main@%_1905_0 () (_ BitVec 24))
(declare-fun main@%_1903_0 () (_ BitVec 24))
(declare-fun main@%_2037_0 () (_ BitVec 24))
(declare-fun main@%_2173_0 () (_ BitVec 24))
(declare-fun main@%_2171_0 () (_ BitVec 24))
(declare-fun main@%_846_0 () (_ BitVec 24))
(declare-fun main@%_2307_0 () (_ BitVec 24))
(declare-fun main@%_2305_0 () (_ BitVec 24))

(assert (let ((a!1 (ite (= ((_ extract 0 0) (bvlshr main@%_28_0 #x000017)) #b1)
                #x800000
                #x000000))
      (a!2 (ite (= ((_ extract 0 0) (bvlshr main@%_41_0 #x000017)) #b1)
                #x800000
                #x000000))
      (a!4 (ite (= ((_ extract 0 0) (bvlshr main@%_26_0 #x000017)) #b1)
                #x800000
                #x000000))
      (a!7 (ite (= ((_ extract 0 0) (bvlshr main@%_163_0 #x000017)) #b1)
                #x800000
                #x000000))
      (a!8 (ite (= ((_ extract 0 0) (bvlshr main@%_176_0 #x000017)) #b1)
                #x800000
                #x000000))
      (a!10 (ite (= ((_ extract 0 0) (bvlshr main@%_161_0 #x000017)) #b1)
                 #x800000
                 #x000000))
      (a!13 (ite (= ((_ extract 0 0) (bvlshr main@%_297_0 #x000017)) #b1)
                 #x800000
                 #x000000))
      (a!14 (ite (= ((_ extract 0 0) (bvlshr main@%_310_0 #x000017)) #b1)
                 #x800000
                 #x000000))
      (a!16 (ite (= ((_ extract 0 0) (bvlshr main@%_295_0 #x000017)) #b1)
                 #x800000
                 #x000000))
      (a!19 (ite (= ((_ extract 0 0) (bvlshr main@%_431_0 #x000017)) #b1)
                 #x800000
                 #x000000))
      (a!20 (ite (= ((_ extract 0 0) (bvlshr main@%_444_0 #x000017)) #b1)
                 #x800000
                 #x000000))
      (a!22 (ite (= ((_ extract 0 0) (bvlshr main@%_429_0 #x000017)) #b1)
                 #x800000
                 #x000000))
      (a!25 (ite (= ((_ extract 0 0) (bvlshr main@%_565_0 #x000017)) #b1)
                 #x800000
                 #x000000))
      (a!26 (ite (= ((_ extract 0 0) (bvlshr main@%_578_0 #x000017)) #b1)
                 #x800000
                 #x000000))
      (a!28 (ite (= ((_ extract 0 0) (bvlshr main@%_563_0 #x000017)) #b1)
                 #x800000
                 #x000000))
      (a!31 (ite (= ((_ extract 0 0) (bvlshr main@%_699_0 #x000017)) #b1)
                 #x800000
                 #x000000))
      (a!32 (ite (= ((_ extract 0 0) (bvlshr main@%_712_0 #x000017)) #b1)
                 #x800000
                 #x000000))
      (a!34 (ite (= ((_ extract 0 0) (bvlshr main@%_697_0 #x000017)) #b1)
                 #x800000
                 #x000000))
      (a!37 (ite (= ((_ extract 0 0) (bvlshr main@%_833_0 #x000017)) #b1)
                 #x800000
                 #x000000))
      (a!38 (ite (= ((_ extract 0 0) (bvlshr main@%_846_0 #x000017)) #b1)
                 #x800000
                 #x000000))
      (a!40 (ite (= ((_ extract 0 0) (bvlshr main@%_831_0 #x000017)) #b1)
                 #x800000
                 #x000000))
      (a!43 (ite (= ((_ extract 0 0) (bvlshr main@%_967_0 #x000017)) #b1)
                 #x800000
                 #x000000))
      (a!44 (ite (= ((_ extract 0 0) (bvlshr main@%_980_0 #x000017)) #b1)
                 #x800000
                 #x000000))
      (a!46 (ite (= ((_ extract 0 0) (bvlshr main@%_965_0 #x000017)) #b1)
                 #x800000
                 #x000000))
      (a!49 (ite (= ((_ extract 0 0) (bvlshr main@%_1101_0 #x000017)) #b1)
                 #x800000
                 #x000000))
      (a!50 (ite (= ((_ extract 0 0) (bvlshr main@%_1114_0 #x000017)) #b1)
                 #x800000
                 #x000000))
      (a!52 (ite (= ((_ extract 0 0) (bvlshr main@%_1099_0 #x000017)) #b1)
                 #x800000
                 #x000000))
      (a!55 (ite (= ((_ extract 0 0) (bvlshr main@%_1235_0 #x000017)) #b1)
                 #x800000
                 #x000000))
      (a!56 (ite (= ((_ extract 0 0) (bvlshr main@%_1248_0 #x000017)) #b1)
                 #x800000
                 #x000000))
      (a!58 (ite (= ((_ extract 0 0) (bvlshr main@%_1233_0 #x000017)) #b1)
                 #x800000
                 #x000000))
      (a!61 (ite (= ((_ extract 0 0) (bvlshr main@%_1369_0 #x000017)) #b1)
                 #x800000
                 #x000000))
      (a!62 (ite (= ((_ extract 0 0) (bvlshr main@%_1382_0 #x000017)) #b1)
                 #x800000
                 #x000000))
      (a!64 (ite (= ((_ extract 0 0) (bvlshr main@%_1367_0 #x000017)) #b1)
                 #x800000
                 #x000000))
      (a!67 (ite (= ((_ extract 0 0) (bvlshr main@%_1503_0 #x000017)) #b1)
                 #x800000
                 #x000000))
      (a!68 (ite (= ((_ extract 0 0) (bvlshr main@%_1516_0 #x000017)) #b1)
                 #x800000
                 #x000000))
      (a!70 (ite (= ((_ extract 0 0) (bvlshr main@%_1501_0 #x000017)) #b1)
                 #x800000
                 #x000000))
      (a!73 (ite (= ((_ extract 0 0) (bvlshr main@%_1637_0 #x000017)) #b1)
                 #x800000
                 #x000000))
      (a!74 (ite (= ((_ extract 0 0) (bvlshr main@%_1650_0 #x000017)) #b1)
                 #x800000
                 #x000000))
      (a!76 (ite (= ((_ extract 0 0) (bvlshr main@%_1635_0 #x000017)) #b1)
                 #x800000
                 #x000000))
      (a!79 (ite (= ((_ extract 0 0) (bvlshr main@%_1771_0 #x000017)) #b1)
                 #x800000
                 #x000000))
      (a!80 (ite (= ((_ extract 0 0) (bvlshr main@%_1784_0 #x000017)) #b1)
                 #x800000
                 #x000000))
      (a!82 (ite (= ((_ extract 0 0) (bvlshr main@%_1769_0 #x000017)) #b1)
                 #x800000
                 #x000000))
      (a!85 (ite (= ((_ extract 0 0) (bvlshr main@%_1905_0 #x000017)) #b1)
                 #x800000
                 #x000000))
      (a!86 (ite (= ((_ extract 0 0) (bvlshr main@%_1918_0 #x000017)) #b1)
                 #x800000
                 #x000000))
      (a!88 (ite (= ((_ extract 0 0) (bvlshr main@%_1903_0 #x000017)) #b1)
                 #x800000
                 #x000000))
      (a!91 (ite (= ((_ extract 0 0) (bvlshr main@%_2039_0 #x000017)) #b1)
                 #x800000
                 #x000000))
      (a!92 (ite (= ((_ extract 0 0) (bvlshr main@%_2052_0 #x000017)) #b1)
                 #x800000
                 #x000000))
      (a!94 (ite (= ((_ extract 0 0) (bvlshr main@%_2037_0 #x000017)) #b1)
                 #x800000
                 #x000000))
      (a!97 (ite (= ((_ extract 0 0) (bvlshr main@%_2173_0 #x000017)) #b1)
                 #x800000
                 #x000000))
      (a!98 (ite (= ((_ extract 0 0) (bvlshr main@%_2186_0 #x000017)) #b1)
                 #x800000
                 #x000000))
      (a!100 (ite (= ((_ extract 0 0) (bvlshr main@%_2171_0 #x000017)) #b1)
                  #x800000
                  #x000000))
      (a!103 (ite (= ((_ extract 0 0) (bvlshr main@%_2307_0 #x000017)) #b1)
                  #x800000
                  #x000000))
      (a!104 (ite (= ((_ extract 0 0) (bvlshr main@%_2320_0 #x000017)) #b1)
                  #x800000
                  #x000000))
      (a!106 (ite (= ((_ extract 0 0) (bvlshr main@%_2305_0 #x000017)) #b1)
                  #x800000
                  #x000000))
      (a!109 (ite (= ((_ extract 0 0) (bvlshr main@%_2441_0 #x000017)) #b1)
                  #x800000
                  #x000000))
      (a!110 (ite (= ((_ extract 0 0) (bvlshr main@%_2454_0 #x000017)) #b1)
                  #x800000
                  #x000000))
      (a!112 (ite (= ((_ extract 0 0) (bvlshr main@%_2439_0 #x000017)) #b1)
                  #x800000
                  #x000000)))
(let ((a!3 (bvult (bvor a!1 ((_ zero_extend 1) ((_ extract 22 0) main@%_41_0)))
                  (bvor a!2 ((_ zero_extend 1) ((_ extract 22 0) main@%_28_0)))))
      (a!5 (bvult (bvor a!4 ((_ zero_extend 1) ((_ extract 22 0) main@%_41_0)))
                  (bvor a!2 ((_ zero_extend 1) ((_ extract 22 0) main@%_26_0)))))
      (a!6 (bvult (bvor a!4 ((_ zero_extend 1) ((_ extract 22 0) main@%_28_0)))
                  (bvor a!1 ((_ zero_extend 1) ((_ extract 22 0) main@%_26_0)))))
      (a!9 (bvult (bvor a!7 ((_ zero_extend 1) ((_ extract 22 0) main@%_176_0)))
                  (bvor a!8 ((_ zero_extend 1) ((_ extract 22 0) main@%_163_0)))))
      (a!11 (bvult (bvor a!10
                         ((_ zero_extend 1) ((_ extract 22 0) main@%_176_0)))
                   (bvor a!8
                         ((_ zero_extend 1) ((_ extract 22 0) main@%_161_0)))))
      (a!12 (bvult (bvor a!10
                         ((_ zero_extend 1) ((_ extract 22 0) main@%_163_0)))
                   (bvor a!7
                         ((_ zero_extend 1) ((_ extract 22 0) main@%_161_0)))))
      (a!15 (bvult (bvor a!13
                         ((_ zero_extend 1) ((_ extract 22 0) main@%_310_0)))
                   (bvor a!14
                         ((_ zero_extend 1) ((_ extract 22 0) main@%_297_0)))))
      (a!17 (bvult (bvor a!16
                         ((_ zero_extend 1) ((_ extract 22 0) main@%_310_0)))
                   (bvor a!14
                         ((_ zero_extend 1) ((_ extract 22 0) main@%_295_0)))))
      (a!18 (bvult (bvor a!16
                         ((_ zero_extend 1) ((_ extract 22 0) main@%_297_0)))
                   (bvor a!13
                         ((_ zero_extend 1) ((_ extract 22 0) main@%_295_0)))))
      (a!21 (bvult (bvor a!19
                         ((_ zero_extend 1) ((_ extract 22 0) main@%_444_0)))
                   (bvor a!20
                         ((_ zero_extend 1) ((_ extract 22 0) main@%_431_0)))))
      (a!23 (bvult (bvor a!22
                         ((_ zero_extend 1) ((_ extract 22 0) main@%_444_0)))
                   (bvor a!20
                         ((_ zero_extend 1) ((_ extract 22 0) main@%_429_0)))))
      (a!24 (bvult (bvor a!22
                         ((_ zero_extend 1) ((_ extract 22 0) main@%_431_0)))
                   (bvor a!19
                         ((_ zero_extend 1) ((_ extract 22 0) main@%_429_0)))))
      (a!27 (bvult (bvor a!25
                         ((_ zero_extend 1) ((_ extract 22 0) main@%_578_0)))
                   (bvor a!26
                         ((_ zero_extend 1) ((_ extract 22 0) main@%_565_0)))))
      (a!29 (bvult (bvor a!28
                         ((_ zero_extend 1) ((_ extract 22 0) main@%_578_0)))
                   (bvor a!26
                         ((_ zero_extend 1) ((_ extract 22 0) main@%_563_0)))))
      (a!30 (bvult (bvor a!28
                         ((_ zero_extend 1) ((_ extract 22 0) main@%_565_0)))
                   (bvor a!25
                         ((_ zero_extend 1) ((_ extract 22 0) main@%_563_0)))))
      (a!33 (bvult (bvor a!31
                         ((_ zero_extend 1) ((_ extract 22 0) main@%_712_0)))
                   (bvor a!32
                         ((_ zero_extend 1) ((_ extract 22 0) main@%_699_0)))))
      (a!35 (bvult (bvor a!34
                         ((_ zero_extend 1) ((_ extract 22 0) main@%_712_0)))
                   (bvor a!32
                         ((_ zero_extend 1) ((_ extract 22 0) main@%_697_0)))))
      (a!36 (bvult (bvor a!34
                         ((_ zero_extend 1) ((_ extract 22 0) main@%_699_0)))
                   (bvor a!31
                         ((_ zero_extend 1) ((_ extract 22 0) main@%_697_0)))))
      (a!39 (bvult (bvor a!37
                         ((_ zero_extend 1) ((_ extract 22 0) main@%_846_0)))
                   (bvor a!38
                         ((_ zero_extend 1) ((_ extract 22 0) main@%_833_0)))))
      (a!41 (bvult (bvor a!40
                         ((_ zero_extend 1) ((_ extract 22 0) main@%_846_0)))
                   (bvor a!38
                         ((_ zero_extend 1) ((_ extract 22 0) main@%_831_0)))))
      (a!42 (bvult (bvor a!40
                         ((_ zero_extend 1) ((_ extract 22 0) main@%_833_0)))
                   (bvor a!37
                         ((_ zero_extend 1) ((_ extract 22 0) main@%_831_0)))))
      (a!45 (bvult (bvor a!43
                         ((_ zero_extend 1) ((_ extract 22 0) main@%_980_0)))
                   (bvor a!44
                         ((_ zero_extend 1) ((_ extract 22 0) main@%_967_0)))))
      (a!47 (bvult (bvor a!46
                         ((_ zero_extend 1) ((_ extract 22 0) main@%_980_0)))
                   (bvor a!44
                         ((_ zero_extend 1) ((_ extract 22 0) main@%_965_0)))))
      (a!48 (bvult (bvor a!46
                         ((_ zero_extend 1) ((_ extract 22 0) main@%_967_0)))
                   (bvor a!43
                         ((_ zero_extend 1) ((_ extract 22 0) main@%_965_0)))))
      (a!51 (bvult (bvor a!49
                         ((_ zero_extend 1) ((_ extract 22 0) main@%_1114_0)))
                   (bvor a!50
                         ((_ zero_extend 1) ((_ extract 22 0) main@%_1101_0)))))
      (a!53 (bvult (bvor a!52
                         ((_ zero_extend 1) ((_ extract 22 0) main@%_1114_0)))
                   (bvor a!50
                         ((_ zero_extend 1) ((_ extract 22 0) main@%_1099_0)))))
      (a!54 (bvult (bvor a!52
                         ((_ zero_extend 1) ((_ extract 22 0) main@%_1101_0)))
                   (bvor a!49
                         ((_ zero_extend 1) ((_ extract 22 0) main@%_1099_0)))))
      (a!57 (bvult (bvor a!55
                         ((_ zero_extend 1) ((_ extract 22 0) main@%_1248_0)))
                   (bvor a!56
                         ((_ zero_extend 1) ((_ extract 22 0) main@%_1235_0)))))
      (a!59 (bvult (bvor a!58
                         ((_ zero_extend 1) ((_ extract 22 0) main@%_1248_0)))
                   (bvor a!56
                         ((_ zero_extend 1) ((_ extract 22 0) main@%_1233_0)))))
      (a!60 (bvult (bvor a!58
                         ((_ zero_extend 1) ((_ extract 22 0) main@%_1235_0)))
                   (bvor a!55
                         ((_ zero_extend 1) ((_ extract 22 0) main@%_1233_0)))))
      (a!63 (bvult (bvor a!61
                         ((_ zero_extend 1) ((_ extract 22 0) main@%_1382_0)))
                   (bvor a!62
                         ((_ zero_extend 1) ((_ extract 22 0) main@%_1369_0)))))
      (a!65 (bvult (bvor a!64
                         ((_ zero_extend 1) ((_ extract 22 0) main@%_1382_0)))
                   (bvor a!62
                         ((_ zero_extend 1) ((_ extract 22 0) main@%_1367_0)))))
      (a!66 (bvult (bvor a!64
                         ((_ zero_extend 1) ((_ extract 22 0) main@%_1369_0)))
                   (bvor a!61
                         ((_ zero_extend 1) ((_ extract 22 0) main@%_1367_0)))))
      (a!69 (bvult (bvor a!67
                         ((_ zero_extend 1) ((_ extract 22 0) main@%_1516_0)))
                   (bvor a!68
                         ((_ zero_extend 1) ((_ extract 22 0) main@%_1503_0)))))
      (a!71 (bvult (bvor a!70
                         ((_ zero_extend 1) ((_ extract 22 0) main@%_1516_0)))
                   (bvor a!68
                         ((_ zero_extend 1) ((_ extract 22 0) main@%_1501_0)))))
      (a!72 (bvult (bvor a!70
                         ((_ zero_extend 1) ((_ extract 22 0) main@%_1503_0)))
                   (bvor a!67
                         ((_ zero_extend 1) ((_ extract 22 0) main@%_1501_0)))))
      (a!75 (bvult (bvor a!73
                         ((_ zero_extend 1) ((_ extract 22 0) main@%_1650_0)))
                   (bvor a!74
                         ((_ zero_extend 1) ((_ extract 22 0) main@%_1637_0)))))
      (a!77 (bvult (bvor a!76
                         ((_ zero_extend 1) ((_ extract 22 0) main@%_1650_0)))
                   (bvor a!74
                         ((_ zero_extend 1) ((_ extract 22 0) main@%_1635_0)))))
      (a!78 (bvult (bvor a!76
                         ((_ zero_extend 1) ((_ extract 22 0) main@%_1637_0)))
                   (bvor a!73
                         ((_ zero_extend 1) ((_ extract 22 0) main@%_1635_0)))))
      (a!81 (bvult (bvor a!79
                         ((_ zero_extend 1) ((_ extract 22 0) main@%_1784_0)))
                   (bvor a!80
                         ((_ zero_extend 1) ((_ extract 22 0) main@%_1771_0)))))
      (a!83 (bvult (bvor a!82
                         ((_ zero_extend 1) ((_ extract 22 0) main@%_1784_0)))
                   (bvor a!80
                         ((_ zero_extend 1) ((_ extract 22 0) main@%_1769_0)))))
      (a!84 (bvult (bvor a!82
                         ((_ zero_extend 1) ((_ extract 22 0) main@%_1771_0)))
                   (bvor a!79
                         ((_ zero_extend 1) ((_ extract 22 0) main@%_1769_0)))))
      (a!87 (bvult (bvor a!85
                         ((_ zero_extend 1) ((_ extract 22 0) main@%_1918_0)))
                   (bvor a!86
                         ((_ zero_extend 1) ((_ extract 22 0) main@%_1905_0)))))
      (a!89 (bvult (bvor a!88
                         ((_ zero_extend 1) ((_ extract 22 0) main@%_1918_0)))
                   (bvor a!86
                         ((_ zero_extend 1) ((_ extract 22 0) main@%_1903_0)))))
      (a!90 (bvult (bvor a!88
                         ((_ zero_extend 1) ((_ extract 22 0) main@%_1905_0)))
                   (bvor a!85
                         ((_ zero_extend 1) ((_ extract 22 0) main@%_1903_0)))))
      (a!93 (bvult (bvor a!91
                         ((_ zero_extend 1) ((_ extract 22 0) main@%_2052_0)))
                   (bvor a!92
                         ((_ zero_extend 1) ((_ extract 22 0) main@%_2039_0)))))
      (a!95 (bvult (bvor a!94
                         ((_ zero_extend 1) ((_ extract 22 0) main@%_2052_0)))
                   (bvor a!92
                         ((_ zero_extend 1) ((_ extract 22 0) main@%_2037_0)))))
      (a!96 (bvult (bvor a!94
                         ((_ zero_extend 1) ((_ extract 22 0) main@%_2039_0)))
                   (bvor a!91
                         ((_ zero_extend 1) ((_ extract 22 0) main@%_2037_0)))))
      (a!99 (bvult (bvor a!97
                         ((_ zero_extend 1) ((_ extract 22 0) main@%_2186_0)))
                   (bvor a!98
                         ((_ zero_extend 1) ((_ extract 22 0) main@%_2173_0)))))
      (a!101 (bvult (bvor a!100
                          ((_ zero_extend 1) ((_ extract 22 0) main@%_2186_0)))
                    (bvor a!98
                          ((_ zero_extend 1) ((_ extract 22 0) main@%_2171_0)))))
      (a!102 (bvult (bvor a!100
                          ((_ zero_extend 1) ((_ extract 22 0) main@%_2173_0)))
                    (bvor a!97
                          ((_ zero_extend 1) ((_ extract 22 0) main@%_2171_0)))))
      (a!105 (bvult (bvor a!103
                          ((_ zero_extend 1) ((_ extract 22 0) main@%_2320_0)))
                    (bvor a!104
                          ((_ zero_extend 1) ((_ extract 22 0) main@%_2307_0)))))
      (a!107 (bvult (bvor a!106
                          ((_ zero_extend 1) ((_ extract 22 0) main@%_2320_0)))
                    (bvor a!104
                          ((_ zero_extend 1) ((_ extract 22 0) main@%_2305_0)))))
      (a!108 (bvult (bvor a!106
                          ((_ zero_extend 1) ((_ extract 22 0) main@%_2307_0)))
                    (bvor a!103
                          ((_ zero_extend 1) ((_ extract 22 0) main@%_2305_0)))))
      (a!111 (bvult (bvor a!109
                          ((_ zero_extend 1) ((_ extract 22 0) main@%_2454_0)))
                    (bvor a!110
                          ((_ zero_extend 1) ((_ extract 22 0) main@%_2441_0)))))
      (a!113 (bvult (bvor a!112
                          ((_ zero_extend 1) ((_ extract 22 0) main@%_2454_0)))
                    (bvor a!110
                          ((_ zero_extend 1) ((_ extract 22 0) main@%_2439_0)))))
      (a!114 (bvult (bvor a!112
                          ((_ zero_extend 1) ((_ extract 22 0) main@%_2441_0)))
                    (bvor a!109
                          ((_ zero_extend 1) ((_ extract 22 0) main@%_2439_0))))))
(let ((a!115 (xor (or (ite a!111 a!113 a!114) (xor (or a!114 a!113) true)) true)))
(let ((a!116 (ite (or (ite a!105 a!107 a!108) (xor (or a!108 a!107) true))
                  (and true a!115)
                  true)))
(let ((a!117 (ite (or (ite a!99 a!101 a!102) (xor (or a!102 a!101) true))
                  a!116
                  true)))
(let ((a!118 (ite (or (ite a!93 a!95 a!96) (xor (or a!96 a!95) true))
                  a!117
                  true)))
(let ((a!119 (ite (or (ite a!87 a!89 a!90) (xor (or a!90 a!89) true))
                  a!118
                  true)))
(let ((a!120 (ite (or (ite a!81 a!83 a!84) (xor (or a!84 a!83) true))
                  a!119
                  true)))
(let ((a!121 (ite (or (ite a!75 a!77 a!78) (xor (or a!78 a!77) true))
                  a!120
                  true)))
(let ((a!122 (ite (or (ite a!69 a!71 a!72) (xor (or a!72 a!71) true))
                  a!121
                  true)))
(let ((a!123 (ite (or (ite a!63 a!65 a!66) (xor (or a!66 a!65) true))
                  a!122
                  true)))
(let ((a!124 (ite (or (ite a!57 a!59 a!60) (xor (or a!60 a!59) true))
                  a!123
                  true)))
(let ((a!125 (ite (or (ite a!51 a!53 a!54) (xor (or a!54 a!53) true))
                  a!124
                  true)))
(let ((a!126 (ite (or (ite a!45 a!47 a!48) (xor (or a!48 a!47) true))
                  a!125
                  true)))
(let ((a!127 (ite (or (ite a!39 a!41 a!42) (xor (or a!42 a!41) true))
                  a!126
                  true)))
(let ((a!128 (ite (or (ite a!33 a!35 a!36) (xor (or a!36 a!35) true))
                  a!127
                  true)))
(let ((a!129 (ite (or (ite a!27 a!29 a!30) (xor (or a!30 a!29) true))
                  a!128
                  true)))
(let ((a!130 (ite (or (ite a!21 a!23 a!24) (xor (or a!24 a!23) true))
                  a!129
                  true)))
(let ((a!131 (ite (or (ite a!15 a!17 a!18) (xor (or a!18 a!17) true))
                  a!130
                  true)))
(let ((a!132 (ite (or (ite a!9 a!11 a!12) (xor (or a!12 a!11) true)) a!131 true)))
(let ((a!133 (ite (or (ite a!3 a!5 a!6) (xor (or a!6 a!5) true)) a!132 true)))
  (and (= #b000 ((_ extract 2 0) sea.sp0_0))
       (bvule sea.sp0_0 #x00000000c0000000)
       (bvuge sea.sp0_0 #x00000000bf700000)
       (ite (or main@%_1_0 (xor main@%_2_0 true)) a!133 true))))))))))))))))))))))))
(check-sat)
